\ Model OBJ_copy
\ LP format - for model browsing. Use MPS format to capture full model detail.
Minimize
 
Subject To
 16316: - TT(TD_f_s5_8h,TD_CDAM_JD_2)_666
   + TTinstr(TD_f_s5_8h,TD_CDAM_JD_2,JD)_669 = 0
 16317: - TT(TD_f_s5_9h30,TD_CDAM_JD_2)_1046
   + TTinstr(TD_f_s5_9h30,TD_CDAM_JD_2,JD)_1049 = 0
 16318: - TT(TD_f_s5_11h,TD_CDAM_JD_2)_1426
   + TTinstr(TD_f_s5_11h,TD_CDAM_JD_2,JD)_1429 = 0
 16319: - TT(TD_f_s5_14h15,TD_CDAM_JD_2)_1831
   + TTinstr(TD_f_s5_14h15,TD_CDAM_JD_2,JD)_1834 = 0
 16320: - TT(TD_f_s5_15h45,TD_CDAM_JD_2)_2211
   + TTinstr(TD_f_s5_15h45,TD_CDAM_JD_2,JD)_2214 = 0
 16321: - TT(TD_f_s5_17h15,TD_CDAM_JD_2)_2591
   + TTinstr(TD_f_s5_17h15,TD_CDAM_JD_2,JD)_2594 = 0
 16322: - TT(TD_tu_s5_17h15,TD_CDAM_JD_2)_12081
   + TTinstr(TD_tu_s5_17h15,TD_CDAM_JD_2,JD)_12084 = 0
 16325: - TT(TD_m_s5_11h,TD_CDAM_JD_2)_13221
   + TTinstr(TD_m_s5_11h,TD_CDAM_JD_2,JD)_13224 = 0
 16327: - TT(TD_m_s5_14h15,TD_CDAM_JD_2)_13981
   + TTinstr(TD_m_s5_14h15,TD_CDAM_JD_2,JD)_13984 = 0
 16328: - TT(TD_tu_s5_14h15,TD_CDAM_JD_2)_14361
   + TTinstr(TD_tu_s5_14h15,TD_CDAM_JD_2,JD)_14364 = 0
 16330: - TT(TD_tu_s5_8h,TD_CDAM_JD_2)_15121
   + TTinstr(TD_tu_s5_8h,TD_CDAM_JD_2,JD)_15124 = 0
 16331: - TT(TD_tu_s5_15h45,TD_CDAM_JD_2)_15501
   + TTinstr(TD_tu_s5_15h45,TD_CDAM_JD_2,JD)_15504 = 0
 16332: - TT(TD_m_s5_15h45,TD_CDAM_JD_2)_15881
   + TTinstr(TD_m_s5_15h45,TD_CDAM_JD_2,JD)_15884 = 0
 16333: - TT(TD_w_s5_8h,TD_CDAM_JD_2)_16261
   + TTinstr(TD_w_s5_8h,TD_CDAM_JD_2,JD)_16264 = 0
 16334: - TT(TD_w_s5_15h45,TD_CDAM_JD_2)_16641
   + TTinstr(TD_w_s5_15h45,TD_CDAM_JD_2,JD)_16644 = 0
 16335: - TT(TD_w_s5_9h30,TD_CDAM_JD_2)_17021
   + TTinstr(TD_w_s5_9h30,TD_CDAM_JD_2,JD)_17024 = 0
 16337: - TT(TD_tu_s5_9h30,TD_CDAM_JD_2)_17781
   + TTinstr(TD_tu_s5_9h30,TD_CDAM_JD_2,JD)_17784 = 0
 16338: - TT(TD_w_s5_17h15,TD_CDAM_JD_2)_18161
   + TTinstr(TD_w_s5_17h15,TD_CDAM_JD_2,JD)_18164 = 0
 16339: - TT(TD_w_s5_11h,TD_CDAM_JD_2)_18566
   + TTinstr(TD_w_s5_11h,TD_CDAM_JD_2,JD)_18569 = 0
 16341: - TT(TD_th_s5_9h30,TD_CDAM_JD_2)_19351
   + TTinstr(TD_th_s5_9h30,TD_CDAM_JD_2,JD)_19354 = 0
 16342: - TT(TD_th_s5_11h,TD_CDAM_JD_2)_19731
   + TTinstr(TD_th_s5_11h,TD_CDAM_JD_2,JD)_19734 = 0
 16343: - TT(TD_th_s5_14h15,TD_CDAM_JD_2)_20111
   + TTinstr(TD_th_s5_14h15,TD_CDAM_JD_2,JD)_20114 = 0
 16345: - TT(TD_th_s5_17h15,TD_CDAM_JD_2)_265
   + TTinstr(TD_th_s5_17h15,TD_CDAM_JD_2,JD)_268 = 0
 16346: - TT(TD_f_s5_8h,TD_CDAM_JD_2)_670
   + TTinstr(TD_f_s5_8h,TD_CDAM_JD_2,JD)_673 = 0
 16348: - TT(TD_f_s5_11h,TD_CDAM_JD_2)_1430
   + TTinstr(TD_f_s5_11h,TD_CDAM_JD_2,JD)_1433 = 0
 16349: - TT(TD_f_s5_14h15,TD_CDAM_JD_2)_1835
   + TTinstr(TD_f_s5_14h15,TD_CDAM_JD_2,JD)_1838 = 0
 16350: - TT(TD_f_s5_15h45,TD_CDAM_JD_2)_2215
   + TTinstr(TD_f_s5_15h45,TD_CDAM_JD_2,JD)_2218 = 0
 16351: - TT(TD_f_s5_17h15,TD_CDAM_JD_2)_2595
   + TTinstr(TD_f_s5_17h15,TD_CDAM_JD_2,JD)_2598 = 0
 16352: - TT(TD_tu_s5_17h15,TD_CDAM_JD_2)_12085
   + TTinstr(TD_tu_s5_17h15,TD_CDAM_JD_2,JD)_12088 = 0
 16354: - TT(TD_m_s5_9h30,TD_CDAM_JD_2)_12845
   + TTinstr(TD_m_s5_9h30,TD_CDAM_JD_2,JD)_12848 = 0
 16355: - TT(TD_m_s5_11h,TD_CDAM_JD_2)_13225
   + TTinstr(TD_m_s5_11h,TD_CDAM_JD_2,JD)_13228 = 0
 16357: - TT(TD_m_s5_14h15,TD_CDAM_JD_2)_13985
   + TTinstr(TD_m_s5_14h15,TD_CDAM_JD_2,JD)_13988 = 0
 16358: - TT(TD_tu_s5_14h15,TD_CDAM_JD_2)_14365
   + TTinstr(TD_tu_s5_14h15,TD_CDAM_JD_2,JD)_14368 = 0
 16360: - TT(TD_tu_s5_8h,TD_CDAM_JD_2)_15125
   + TTinstr(TD_tu_s5_8h,TD_CDAM_JD_2,JD)_15128 = 0
 16361: - TT(TD_tu_s5_15h45,TD_CDAM_JD_2)_15505
   + TTinstr(TD_tu_s5_15h45,TD_CDAM_JD_2,JD)_15508 = 0
 16362: - TT(TD_m_s5_15h45,TD_CDAM_JD_2)_15885
   + TTinstr(TD_m_s5_15h45,TD_CDAM_JD_2,JD)_15888 = 0
 16363: - TT(TD_w_s5_8h,TD_CDAM_JD_2)_16265
   + TTinstr(TD_w_s5_8h,TD_CDAM_JD_2,JD)_16268 = 0
 16364: - TT(TD_w_s5_15h45,TD_CDAM_JD_2)_16645
   + TTinstr(TD_w_s5_15h45,TD_CDAM_JD_2,JD)_16648 = 0
 16365: - TT(TD_w_s5_9h30,TD_CDAM_JD_2)_17025
   + TTinstr(TD_w_s5_9h30,TD_CDAM_JD_2,JD)_17028 = 0
 16366: - TT(TD_tu_s5_11h,TD_CDAM_JD_2)_17405
   + TTinstr(TD_tu_s5_11h,TD_CDAM_JD_2,JD)_17408 = 0
 16367: - TT(TD_tu_s5_9h30,TD_CDAM_JD_2)_17785
   + TTinstr(TD_tu_s5_9h30,TD_CDAM_JD_2,JD)_17788 = 0
 16368: - TT(TD_w_s5_17h15,TD_CDAM_JD_2)_18165
   + TTinstr(TD_w_s5_17h15,TD_CDAM_JD_2,JD)_18168 = 0
 16369: - TT(TD_w_s5_11h,TD_CDAM_JD_2)_18570
   + TTinstr(TD_w_s5_11h,TD_CDAM_JD_2,JD)_18573 = 0
 16371: - TT(TD_th_s5_9h30,TD_CDAM_JD_2)_19355
   + TTinstr(TD_th_s5_9h30,TD_CDAM_JD_2,JD)_19358 = 0
 16372: - TT(TD_th_s5_11h,TD_CDAM_JD_2)_19735
   + TTinstr(TD_th_s5_11h,TD_CDAM_JD_2,JD)_19738 = 0
 16373: - TT(TD_th_s5_14h15,TD_CDAM_JD_2)_20115
   + TTinstr(TD_th_s5_14h15,TD_CDAM_JD_2,JD)_20118 = 0
 17852: - TT(CM_m_s5_11h,CM_CDAM_AP_CE)_1555
   + TTinstr(CM_m_s5_11h,CM_CDAM_AP_CE,AP)_1559 = 0
 17856: - TT(CM_tu_s5_14h15,CM_CDAM_AP_CE)_3873
   + TTinstr(CM_tu_s5_14h15,CM_CDAM_AP_CE,AP)_3877 = 0
 17857: - TT(CM_tu_s5_17h15,CM_CDAM_AP_CE)_4180
   + TTinstr(CM_tu_s5_17h15,CM_CDAM_AP_CE,AP)_4184 = 0
 17863: - TT(CM_tu_s5_15h45,CM_CDAM_AP_CE)_6586
   + TTinstr(CM_tu_s5_15h45,CM_CDAM_AP_CE,AP)_6590 = 0
 17868: - TT(CM_w_s5_14h15,CM_CDAM_AP_CE)_7814
   + TTinstr(CM_w_s5_14h15,CM_CDAM_AP_CE,AP)_7818 = 0
 19573: TTinstr(CM_m_s5_11h,CM_CDAM_AP_CE,AP)_1559 <= 0
 19597: TTinstr(CM_tu_s5_14h15,CM_CDAM_AP_CE,AP)_3877 <= 0
 19601: TTinstr(CM_tu_s5_17h15,CM_CDAM_AP_CE,AP)_4184 <= 0
 19629: TTinstr(CM_tu_s5_15h45,CM_CDAM_AP_CE,AP)_6590 <= 0
 19645: TTinstr(CM_w_s5_14h15,CM_CDAM_AP_CE,AP)_7818 <= 0
 21715: TTinstr(TD_th_s5_17h15,TD_CDAM_JD_2,JD)_264
   + TTinstr(TD_th_s5_17h15,TD_CDAM_JD_2,JD)_268 <= 0
 21721: TTinstr(TD_f_s5_8h,TD_CDAM_JD_2,JD)_669
   + TTinstr(TD_f_s5_8h,TD_CDAM_JD_2,JD)_673 <= 0
 21725: TTinstr(TD_f_s5_9h30,TD_CDAM_JD_2,JD)_1049
   + TTinstr(TD_f_s5_9h30,TD_CDAM_JD_2,JD)_1053 <= 0
 21729: TTinstr(TD_f_s5_11h,TD_CDAM_JD_2,JD)_1429
   + TTinstr(TD_f_s5_11h,TD_CDAM_JD_2,JD)_1433 <= 0
 21735: TTinstr(TD_f_s5_14h15,TD_CDAM_JD_2,JD)_1834
   + TTinstr(TD_f_s5_14h15,TD_CDAM_JD_2,JD)_1838 <= 0
 21739: TTinstr(TD_f_s5_15h45,TD_CDAM_JD_2,JD)_2214
   + TTinstr(TD_f_s5_15h45,TD_CDAM_JD_2,JD)_2218 <= 0
 21743: TTinstr(TD_f_s5_17h15,TD_CDAM_JD_2,JD)_2594
   + TTinstr(TD_f_s5_17h15,TD_CDAM_JD_2,JD)_2598 <= 0
 21859: TTinstr(TD_tu_s5_17h15,TD_CDAM_JD_2,JD)_12084
   + TTinstr(TD_tu_s5_17h15,TD_CDAM_JD_2,JD)_12088 <= 0
 21867: TTinstr(TD_m_s5_9h30,TD_CDAM_JD_2,JD)_12844
   + TTinstr(TD_m_s5_9h30,TD_CDAM_JD_2,JD)_12848 <= 0
 21871: TTinstr(TD_m_s5_11h,TD_CDAM_JD_2,JD)_13224
   + TTinstr(TD_m_s5_11h,TD_CDAM_JD_2,JD)_13228 <= 0
 21879: TTinstr(TD_m_s5_14h15,TD_CDAM_JD_2,JD)_13984
   + TTinstr(TD_m_s5_14h15,TD_CDAM_JD_2,JD)_13988 <= 0
 21883: TTinstr(TD_tu_s5_14h15,TD_CDAM_JD_2,JD)_14364
   + TTinstr(TD_tu_s5_14h15,TD_CDAM_JD_2,JD)_14368 <= 0
 21891: TTinstr(TD_tu_s5_8h,TD_CDAM_JD_2,JD)_15124
   + TTinstr(TD_tu_s5_8h,TD_CDAM_JD_2,JD)_15128 <= 0
 21897: TTinstr(TD_tu_s5_15h45,TD_CDAM_JD_2,JD)_15504
   + TTinstr(TD_tu_s5_15h45,TD_CDAM_JD_2,JD)_15508 <= 0
 21901: TTinstr(TD_m_s5_15h45,TD_CDAM_JD_2,JD)_15884
   + TTinstr(TD_m_s5_15h45,TD_CDAM_JD_2,JD)_15888 <= 0
 21905: TTinstr(TD_w_s5_8h,TD_CDAM_JD_2,JD)_16264
   + TTinstr(TD_w_s5_8h,TD_CDAM_JD_2,JD)_16268 <= 0
 21909: TTinstr(TD_w_s5_15h45,TD_CDAM_JD_2,JD)_16644
   + TTinstr(TD_w_s5_15h45,TD_CDAM_JD_2,JD)_16648 <= 0
 21913: TTinstr(TD_w_s5_9h30,TD_CDAM_JD_2,JD)_17024
   + TTinstr(TD_w_s5_9h30,TD_CDAM_JD_2,JD)_17028 <= 0
 21919: TTinstr(TD_tu_s5_11h,TD_CDAM_JD_2,JD)_17404
   + TTinstr(TD_tu_s5_11h,TD_CDAM_JD_2,JD)_17408 <= 0
 21923: TTinstr(TD_tu_s5_9h30,TD_CDAM_JD_2,JD)_17784
   + TTinstr(TD_tu_s5_9h30,TD_CDAM_JD_2,JD)_17788 <= 0
 21927: TTinstr(TD_w_s5_17h15,TD_CDAM_JD_2,JD)_18164
   + TTinstr(TD_w_s5_17h15,TD_CDAM_JD_2,JD)_18168 <= 0
 21933: TTinstr(TD_w_s5_11h,TD_CDAM_JD_2,JD)_18569
   + TTinstr(TD_w_s5_11h,TD_CDAM_JD_2,JD)_18573 <= 0
 21943: TTinstr(TD_th_s5_9h30,TD_CDAM_JD_2,JD)_19354
   + TTinstr(TD_th_s5_9h30,TD_CDAM_JD_2,JD)_19358 <= 0
 21947: TTinstr(TD_th_s5_11h,TD_CDAM_JD_2,JD)_19734
   + TTinstr(TD_th_s5_11h,TD_CDAM_JD_2,JD)_19738 <= 0
 21951: TTinstr(TD_th_s5_14h15,TD_CDAM_JD_2,JD)_20114
   + TTinstr(TD_th_s5_14h15,TD_CDAM_JD_2,JD)_20118 <= 0
 34727: TT(TD_th_s5_17h15,TD_CDAM_JD_2)_261
   + TT(TD_f_s5_9h30,TD_CDAM_JD_2)_1050 <= 1
 34733: TT(TD_m_s5_8h,TD_CDAM_JD_2)_12465
   + TT(TD_th_s5_17h15,TD_CDAM_JD_2)_261 <= 1
 34736: TT(TD_th_s5_17h15,TD_CDAM_JD_2)_261
   + TT(TD_w_s5_14h15,TD_CDAM_JD_2)_13605 <= 1
 34739: TT(TD_m_s5_17h15,TD_CDAM_JD_2)_14745
   + TT(TD_th_s5_17h15,TD_CDAM_JD_2)_261 <= 1
 34750: TT(TD_th_s5_17h15,TD_CDAM_JD_2)_261
   + TT(TD_th_s5_8h,TD_CDAM_JD_2)_18950 <= 1
 34754: TT(TD_th_s5_17h15,TD_CDAM_JD_2)_261
   + TT(TD_th_s5_15h45,TD_CDAM_JD_2)_20495 <= 1
 34971: TT(TD_m_s5_8h,TD_CDAM_JD_2)_12461
   + TT(TD_f_s5_9h30,TD_CDAM_JD_2)_1050 <= 1
 34981: TT(TD_m_s5_8h,TD_CDAM_JD_2)_12461
   + TT(TD_w_s5_14h15,TD_CDAM_JD_2)_13605 <= 1
 34984: TT(TD_m_s5_17h15,TD_CDAM_JD_2)_14745
   + TT(TD_m_s5_8h,TD_CDAM_JD_2)_12461 <= 1
 34999: TT(TD_m_s5_8h,TD_CDAM_JD_2)_12461
   + TT(TD_th_s5_15h45,TD_CDAM_JD_2)_20495 <= 1
 35002: TT(TD_f_s5_9h30,TD_CDAM_JD_2)_1050
   + TT(TD_m_s5_9h30,TD_CDAM_JD_2)_12841 <= 1
 35008: TT(TD_m_s5_8h,TD_CDAM_JD_2)_12465
   + TT(TD_m_s5_9h30,TD_CDAM_JD_2)_12841 <= 1
 35012: TT(TD_m_s5_9h30,TD_CDAM_JD_2)_12841
   + TT(TD_w_s5_14h15,TD_CDAM_JD_2)_13605 <= 1
 35015: TT(TD_m_s5_17h15,TD_CDAM_JD_2)_14745
   + TT(TD_m_s5_9h30,TD_CDAM_JD_2)_12841 <= 1
 35026: TT(TD_th_s5_8h,TD_CDAM_JD_2)_18950
   + TT(TD_m_s5_9h30,TD_CDAM_JD_2)_12841 <= 1
 35030: TT(TD_m_s5_9h30,TD_CDAM_JD_2)_12841
   + TT(TD_th_s5_15h45,TD_CDAM_JD_2)_20495 <= 1
 35063: TT(TD_f_s5_9h30,TD_CDAM_JD_2)_1050
   + TT(TD_w_s5_14h15,TD_CDAM_JD_2)_13601 <= 1
 35069: TT(TD_m_s5_8h,TD_CDAM_JD_2)_12465
   + TT(TD_w_s5_14h15,TD_CDAM_JD_2)_13601 <= 1
 35075: TT(TD_m_s5_17h15,TD_CDAM_JD_2)_14745
   + TT(TD_w_s5_14h15,TD_CDAM_JD_2)_13601 <= 1
 35087: TT(TD_th_s5_8h,TD_CDAM_JD_2)_18950
   + TT(TD_w_s5_14h15,TD_CDAM_JD_2)_13601 <= 1
 35091: TT(TD_w_s5_14h15,TD_CDAM_JD_2)_13601
   + TT(TD_th_s5_15h45,TD_CDAM_JD_2)_20495 <= 1
 35156: TT(TD_m_s5_17h15,TD_CDAM_JD_2)_14741
   + TT(TD_f_s5_9h30,TD_CDAM_JD_2)_1050 <= 1
 35165: TT(TD_m_s5_17h15,TD_CDAM_JD_2)_14741
   + TT(TD_w_s5_14h15,TD_CDAM_JD_2)_13605 <= 1
 35168: TT(TD_m_s5_17h15,TD_CDAM_JD_2)_14741
   + TT(TD_m_s5_17h15,TD_CDAM_JD_2)_14745 <= 1
 35179: TT(TD_m_s5_17h15,TD_CDAM_JD_2)_14741
   + TT(TD_th_s5_8h,TD_CDAM_JD_2)_18950 <= 1
 35183: TT(TD_m_s5_17h15,TD_CDAM_JD_2)_14741
   + TT(TD_th_s5_15h45,TD_CDAM_JD_2)_20495 <= 1
 35372: TT(TD_f_s5_9h30,TD_CDAM_JD_2)_1050
   + TT(TD_tu_s5_11h,TD_CDAM_JD_2)_17401 <= 1
 35378: TT(TD_m_s5_8h,TD_CDAM_JD_2)_12465
   + TT(TD_tu_s5_11h,TD_CDAM_JD_2)_17401 <= 1
 35381: TT(TD_w_s5_14h15,TD_CDAM_JD_2)_13605
   + TT(TD_tu_s5_11h,TD_CDAM_JD_2)_17401 <= 1
 35384: TT(TD_m_s5_17h15,TD_CDAM_JD_2)_14745
   + TT(TD_tu_s5_11h,TD_CDAM_JD_2)_17401 <= 1
 35395: TT(TD_th_s5_8h,TD_CDAM_JD_2)_18950
   + TT(TD_tu_s5_11h,TD_CDAM_JD_2)_17401 <= 1
 35399: TT(TD_tu_s5_11h,TD_CDAM_JD_2)_17401
   + TT(TD_th_s5_15h45,TD_CDAM_JD_2)_20495 <= 1
 35493: TT(TD_th_s5_8h,TD_CDAM_JD_2)_18946
   + TT(TD_f_s5_9h30,TD_CDAM_JD_2)_1050 <= 1
 35499: TT(TD_m_s5_8h,TD_CDAM_JD_2)_12465
   + TT(TD_th_s5_8h,TD_CDAM_JD_2)_18946 <= 1
 35502: TT(TD_th_s5_8h,TD_CDAM_JD_2)_18946
   + TT(TD_w_s5_14h15,TD_CDAM_JD_2)_13605 <= 1
 35505: TT(TD_m_s5_17h15,TD_CDAM_JD_2)_14745
   + TT(TD_th_s5_8h,TD_CDAM_JD_2)_18946 <= 1
 35516: TT(TD_th_s5_8h,TD_CDAM_JD_2)_18946
   + TT(TD_th_s5_8h,TD_CDAM_JD_2)_18950 <= 1
 35521: TT(TD_th_s5_8h,TD_CDAM_JD_2)_18946
   + TT(TD_th_s5_15h45,TD_CDAM_JD_2)_20495 <= 1
 35617: TT(TD_f_s5_9h30,TD_CDAM_JD_2)_1050
   + TT(TD_th_s5_15h45,TD_CDAM_JD_2)_20491 <= 1
 35623: TT(TD_m_s5_8h,TD_CDAM_JD_2)_12465
   + TT(TD_th_s5_15h45,TD_CDAM_JD_2)_20491 <= 1
 35626: TT(TD_w_s5_14h15,TD_CDAM_JD_2)_13605
   + TT(TD_th_s5_15h45,TD_CDAM_JD_2)_20491 <= 1
 35629: TT(TD_m_s5_17h15,TD_CDAM_JD_2)_14745
   + TT(TD_th_s5_15h45,TD_CDAM_JD_2)_20491 <= 1
 35640: TT(TD_th_s5_8h,TD_CDAM_JD_2)_18950
   + TT(TD_th_s5_15h45,TD_CDAM_JD_2)_20491 <= 1
 42765: TT(CM_m_s5_14h15,CM_CDAM_AP_CE)_9656
   + TT(TD_m_s5_8h,TD_CDAM_JD_2)_12465 <= 1
 42771: TT(CM_th_s5_17h15,CM_CDAM_AP_CE)_9681
   + TT(TD_m_s5_8h,TD_CDAM_JD_2)_12465 <= 1
 42796: TT(CM_f_s5_8h,CM_CDAM_AP_CE)_9988
   + TT(TD_m_s5_8h,TD_CDAM_JD_2)_12465 <= 1
 42818: TT(TD_m_s5_8h,TD_CDAM_JD_2)_12465
   + TT(CM_m_s5_9h30,CM_CDAM_AP_CE)_390 <= 1
 42824: TT(TD_m_s5_8h,TD_CDAM_JD_2)_12465
   + TT(CM_f_s5_9h30,CM_CDAM_AP_CE)_10295 <= 1
 42851: TT(TD_m_s5_8h,TD_CDAM_JD_2)_12465
   + TT(CM_f_s5_11h,CM_CDAM_AP_CE)_10602 <= 1
 42868: TT(TD_th_s5_8h,TD_CDAM_JD_2)_18950
   + TT(CM_f_s5_11h,CM_CDAM_AP_CE)_10602 <= 1
 42896: TT(CM_f_s5_14h15,CM_CDAM_AP_CE)_10909
   + TT(TD_th_s5_8h,TD_CDAM_JD_2)_18950 <= 1
 42911: TT(CM_f_s5_15h45,CM_CDAM_AP_CE)_11216
   + TT(TD_m_s5_8h,TD_CDAM_JD_2)_12465 <= 1
 42963: TT(TD_m_s5_8h,TD_CDAM_JD_2)_12465
   + TT(CM_tu_s5_11h,CM_CDAM_AP_CE)_3284 <= 1
 43003: TT(TD_m_s5_8h,TD_CDAM_JD_2)_12465
   + TT(CM_w_s5_11h,CM_CDAM_AP_CE)_5922 <= 1
 43017: TT(CM_tu_s5_8h,CM_CDAM_AP_CE)_6229
   + TT(TD_m_s5_8h,TD_CDAM_JD_2)_12465 <= 1
 43037: TT(CM_m_s5_15h45,CM_CDAM_AP_CE)_6561
   + TT(TD_m_s5_8h,TD_CDAM_JD_2)_12465 <= 1
 43054: TT(TD_m_s5_8h,TD_CDAM_JD_2)_12465
   + TT(CM_w_s5_9h30,CM_CDAM_AP_CE)_6893 <= 1
 43085: TT(CM_w_s5_17h15,CM_CDAM_AP_CE)_7507
   + TT(TD_m_s5_8h,TD_CDAM_JD_2)_12465 <= 1
 43137: TT(CM_th_s5_8h,CM_CDAM_AP_CE)_8121
   + TT(TD_th_s5_8h,TD_CDAM_JD_2)_18950 <= 1
 43138: TT(CM_m_s5_17h15,CM_CDAM_AP_CE)_19075
   + TT(TD_m_s5_8h,TD_CDAM_JD_2)_12465 <= 1
 43145: TT(TD_m_s5_8h,TD_CDAM_JD_2)_12465
   + TT(CM_th_s5_9h30,CM_CDAM_AP_CE)_8428 <= 1
 43162: TT(TD_th_s5_8h,TD_CDAM_JD_2)_18950
   + TT(CM_th_s5_9h30,CM_CDAM_AP_CE)_8428 <= 1
 43182: TT(TD_th_s5_8h,TD_CDAM_JD_2)_18950
   + TT(CM_th_s5_11h,CM_CDAM_AP_CE)_8735 <= 1
 43203: TT(CM_th_s5_14h15,CM_CDAM_AP_CE)_9042
   + TT(TD_th_s5_8h,TD_CDAM_JD_2)_18950 <= 1
 43230: TT(CM_m_s5_14h15,CM_CDAM_AP_CE)_9656
   + TT(TD_m_s5_8h,TD_CDAM_JD_2)_12461 <= 1
 43236: TT(CM_th_s5_17h15,CM_CDAM_AP_CE)_9681
   + TT(TD_m_s5_8h,TD_CDAM_JD_2)_12461 <= 1
 43261: TT(CM_f_s5_8h,CM_CDAM_AP_CE)_9988
   + TT(TD_m_s5_8h,TD_CDAM_JD_2)_12461 <= 1
 43283: TT(TD_m_s5_8h,TD_CDAM_JD_2)_12461
   + TT(CM_m_s5_9h30,CM_CDAM_AP_CE)_390 <= 1
 43289: TT(TD_m_s5_8h,TD_CDAM_JD_2)_12461
   + TT(CM_f_s5_9h30,CM_CDAM_AP_CE)_10295 <= 1
 43350: TT(CM_f_s5_14h15,CM_CDAM_AP_CE)_10909
   + TT(TD_m_s5_17h15,TD_CDAM_JD_2)_14741 <= 1
 43376: TT(CM_f_s5_15h45,CM_CDAM_AP_CE)_11216
   + TT(TD_m_s5_8h,TD_CDAM_JD_2)_12461 <= 1
 43406: TT(CM_f_s5_17h15,CM_CDAM_AP_CE)_11523
   + TT(TD_m_s5_8h,TD_CDAM_JD_2)_12461 <= 1
 43412: TT(CM_f_s5_17h15,CM_CDAM_AP_CE)_11523
   + TT(TD_m_s5_17h15,TD_CDAM_JD_2)_14741 <= 1
 43428: TT(TD_m_s5_8h,TD_CDAM_JD_2)_12461
   + TT(CM_tu_s5_11h,CM_CDAM_AP_CE)_3284 <= 1
 43459: TT(TD_m_s5_8h,TD_CDAM_JD_2)_12461
   + TT(CM_tu_s5_9h30,CM_CDAM_AP_CE)_5615 <= 1
 43463: TT(TD_m_s5_17h15,TD_CDAM_JD_2)_14741
   + TT(CM_tu_s5_9h30,CM_CDAM_AP_CE)_5615 <= 1
 43468: TT(TD_m_s5_8h,TD_CDAM_JD_2)_12461
   + TT(CM_w_s5_11h,CM_CDAM_AP_CE)_5922 <= 1
 43482: TT(CM_tu_s5_8h,CM_CDAM_AP_CE)_6229
   + TT(TD_m_s5_8h,TD_CDAM_JD_2)_12461 <= 1
 43490: TT(CM_w_s5_8h,CM_CDAM_AP_CE)_6254
   + TT(TD_m_s5_8h,TD_CDAM_JD_2)_12461 <= 1
 43495: TT(CM_w_s5_8h,CM_CDAM_AP_CE)_6254
   + TT(TD_m_s5_17h15,TD_CDAM_JD_2)_14741 <= 1
 43502: TT(CM_m_s5_15h45,CM_CDAM_AP_CE)_6561
   + TT(TD_m_s5_8h,TD_CDAM_JD_2)_12461 <= 1
 43519: TT(TD_m_s5_8h,TD_CDAM_JD_2)_12461
   + TT(CM_w_s5_9h30,CM_CDAM_AP_CE)_6893 <= 1
 43533: TT(CM_w_s5_15h45,CM_CDAM_AP_CE)_7200
   + TT(TD_m_s5_8h,TD_CDAM_JD_2)_12461 <= 1
 43539: TT(CM_w_s5_15h45,CM_CDAM_AP_CE)_7200
   + TT(TD_m_s5_17h15,TD_CDAM_JD_2)_14741 <= 1
 43550: TT(CM_w_s5_17h15,CM_CDAM_AP_CE)_7507
   + TT(TD_m_s5_8h,TD_CDAM_JD_2)_12461 <= 1
 43591: TT(CM_th_s5_8h,CM_CDAM_AP_CE)_8121
   + TT(TD_m_s5_17h15,TD_CDAM_JD_2)_14741 <= 1
 43603: TT(CM_m_s5_17h15,CM_CDAM_AP_CE)_19075
   + TT(TD_m_s5_8h,TD_CDAM_JD_2)_12461 <= 1
 43636: TT(TD_m_s5_17h15,TD_CDAM_JD_2)_14741
   + TT(CM_th_s5_11h,CM_CDAM_AP_CE)_8735 <= 1
 43657: TT(CM_th_s5_14h15,CM_CDAM_AP_CE)_9042
   + TT(TD_m_s5_17h15,TD_CDAM_JD_2)_14741 <= 1
 43673: TT(CM_th_s5_15h45,CM_CDAM_AP_CE)_9349
   + TT(TD_m_s5_8h,TD_CDAM_JD_2)_12461 <= 1
 43679: TT(CM_th_s5_15h45,CM_CDAM_AP_CE)_9349
   + TT(TD_m_s5_17h15,TD_CDAM_JD_2)_14741 <= 1
 7214: TT(CM_m_s5_8h,CM_CDAM_AP_CE)_18290
   + TT(CM_m_s5_8h,CM_IA_MFC_234)_18285 + TT(CM_m_s5_8h,CM_IE_RB_234)_18295
   + 1000 TT(TD_m_s5_8h,TD_CDAM_JD_2)_12461
   + 1000 TT(TD_m_s5_8h,TD_CDAM_JD_2)_12465
   + 1000 TT(TD_m_s5_8h,TD_CO_MN_2)_12548
   + 1000 TT(TD_m_s5_8h,TD_EC_HS_2)_12487
   + 1000 TT(TD_m_s5_8h,TD_EC_HS_2)_12492
   + 1000 TT(TD_m_s5_8h,TD_FW_LN_2)_12433
   + 1000 TT(TD_m_s5_8h,TD_FW_LN_2)_12443
   + 1000 TT(TD_m_s5_8h,TD_GA_RB_2)_12507
   + 1000 TT(TD_m_s5_8h,TD_GA_RB_2)_12516
   + 1000 TT(TD_m_s5_8h,TD_PTUT_MFC_2)_12469
   + 1000 TT(TD_m_s5_8h,TD_TA_VG_2)_12553 + TT(TP_m_s5_8h,TP_CO_MN_2B)_3229
   + TT(TP_m_s5_8h,TP_IA_PSO_2B)_3119 + TT(TP_m_s5_8h,TP_IE_AV_2B)_3152
   + TT(TP_m_s5_8h,TP_IE_AV_2B)_3163 + TT(TP_m_s5_8h,TP_TA_IC_2B)_3243
   <= 1000
 7256: TT(CM_w_s5_14h15,CM_CDAM_AP_CE)_7814
   + TT(CM_w_s5_14h15,CM_IA_MFC_234)_7809
   + TT(CM_w_s5_14h15,CM_IE_RB_234)_7819
   + TT(TP_w_s5_14h15,TP_IA_PSO_2B)_4015
   + TT(TP_w_s5_14h15,TP_IE_AV_2B)_4048
   + TT(TP_w_s5_14h15,TP_IE_AV_2B)_4059
   + TT(TP_w_s5_14h15,TP_CO_MN_2B)_4125
   + TT(TP_w_s5_14h15,TP_TA_IC_2B)_4139
   + 1000 TT(TD_w_s5_14h15,TD_FW_LN_2)_13573
   + 1000 TT(TD_w_s5_14h15,TD_FW_LN_2)_13583
   + 1000 TT(TD_w_s5_14h15,TD_CDAM_JD_2)_13601
   + 1000 TT(TD_w_s5_14h15,TD_CDAM_JD_2)_13605
   + 1000 TT(TD_w_s5_14h15,TD_PTUT_MFC_2)_13609
   + 1000 TT(TD_w_s5_14h15,TD_EC_HS_2)_13627
   + 1000 TT(TD_w_s5_14h15,TD_EC_HS_2)_13632
   + 1000 TT(TD_w_s5_14h15,TD_GA_RB_2)_13647
   + 1000 TT(TD_w_s5_14h15,TD_GA_RB_2)_13656
   + 1000 TT(TD_w_s5_14h15,TD_CO_MN_2)_13688
   + 1000 TT(TD_w_s5_14h15,TD_TA_VG_2)_13693 <= 1000
 7528: TT(CM_th_s5_15h45,CM_CDAM_AP_CE)_9349
   + TT(CM_th_s5_15h45,CM_IA_MFC_234)_9344
   + TT(CM_th_s5_15h45,CM_IE_RB_234)_9354
   + TT(TP_th_s5_15h45,TP_CO_MN_2A)_9590
   + TT(TP_th_s5_15h45,TP_IA_PSO_2A)_9480
   + TT(TP_th_s5_15h45,TP_IE_RB_2A)_9502
   + TT(TP_th_s5_15h45,TP_IE_RB_2A)_9513
   + TT(TP_th_s5_15h45,TP_TA_IC_2A)_9612
   + 1000 TT(TD_th_s5_15h45,TD_FW_LN_2)_20463
   + 1000 TT(TD_th_s5_15h45,TD_FW_LN_2)_20473
   + 1000 TT(TD_th_s5_15h45,TD_CDAM_JD_2)_20491
   + 1000 TT(TD_th_s5_15h45,TD_CDAM_JD_2)_20495
   + 1000 TT(TD_th_s5_15h45,TD_PTUT_MFC_2)_20499
   + 1000 TT(TD_th_s5_15h45,TD_EC_HS_2)_20517
   + 1000 TT(TD_th_s5_15h45,TD_EC_HS_2)_20522
   + 1000 TT(TD_th_s5_15h45,TD_GA_RB_2)_20537
   + 1000 TT(TD_th_s5_15h45,TD_GA_RB_2)_20546
   + 1000 TT(TD_th_s5_15h45,TD_CO_MN_2)_20578
   + 1000 TT(TD_th_s5_15h45,TD_TA_VG_2)_20583 <= 1000
 7563: TT(TD_f_s5_17h15,TD_CDAM_JD_2)_2591
   + TT(TD_f_s5_8h,TD_CDAM_JD_2)_666 + TT(TD_m_s5_17h15,TD_CDAM_JD_2)_14741
   + TT(TD_m_s5_8h,TD_CDAM_JD_2)_12461
   + TT(TD_th_s5_17h15,TD_CDAM_JD_2)_261
   + TT(TD_th_s5_8h,TD_CDAM_JD_2)_18946
   + TT(TD_tu_s5_17h15,TD_CDAM_JD_2)_12081
   + TT(TD_tu_s5_8h,TD_CDAM_JD_2)_15121
   + TT(TD_w_s5_17h15,TD_CDAM_JD_2)_18161
   + TT(TD_w_s5_8h,TD_CDAM_JD_2)_16261 + TT(TD_f_s5_9h30,TD_CDAM_JD_2)_1046
   + TT(TD_f_s5_11h,TD_CDAM_JD_2)_1426
   + TT(TD_f_s5_14h15,TD_CDAM_JD_2)_1831
   + TT(TD_f_s5_15h45,TD_CDAM_JD_2)_2211
   + TT(TD_m_s5_9h30,TD_CDAM_JD_2)_12841
   + TT(TD_m_s5_11h,TD_CDAM_JD_2)_13221
   + TT(TD_w_s5_14h15,TD_CDAM_JD_2)_13601
   + TT(TD_m_s5_14h15,TD_CDAM_JD_2)_13981
   + TT(TD_tu_s5_14h15,TD_CDAM_JD_2)_14361
   + TT(TD_tu_s5_15h45,TD_CDAM_JD_2)_15501
   + TT(TD_m_s5_15h45,TD_CDAM_JD_2)_15881
   + TT(TD_w_s5_15h45,TD_CDAM_JD_2)_16641
   + TT(TD_w_s5_9h30,TD_CDAM_JD_2)_17021
   + TT(TD_tu_s5_11h,TD_CDAM_JD_2)_17401
   + TT(TD_tu_s5_9h30,TD_CDAM_JD_2)_17781
   + TT(TD_w_s5_11h,TD_CDAM_JD_2)_18566
   + TT(TD_th_s5_9h30,TD_CDAM_JD_2)_19351
   + TT(TD_th_s5_11h,TD_CDAM_JD_2)_19731
   + TT(TD_th_s5_14h15,TD_CDAM_JD_2)_20111
   + TT(TD_th_s5_15h45,TD_CDAM_JD_2)_20491 = 1
 7564: TT(TD_f_s5_17h15,TD_CDAM_JD_2)_2595
   + TT(TD_f_s5_8h,TD_CDAM_JD_2)_670 + TT(TD_m_s5_17h15,TD_CDAM_JD_2)_14745
   + TT(TD_m_s5_8h,TD_CDAM_JD_2)_12465
   + TT(TD_th_s5_17h15,TD_CDAM_JD_2)_265
   + TT(TD_th_s5_8h,TD_CDAM_JD_2)_18950
   + TT(TD_tu_s5_17h15,TD_CDAM_JD_2)_12085
   + TT(TD_tu_s5_8h,TD_CDAM_JD_2)_15125
   + TT(TD_w_s5_17h15,TD_CDAM_JD_2)_18165
   + TT(TD_w_s5_8h,TD_CDAM_JD_2)_16265 + TT(TD_f_s5_9h30,TD_CDAM_JD_2)_1050
   + TT(TD_f_s5_11h,TD_CDAM_JD_2)_1430
   + TT(TD_f_s5_14h15,TD_CDAM_JD_2)_1835
   + TT(TD_f_s5_15h45,TD_CDAM_JD_2)_2215
   + TT(TD_m_s5_9h30,TD_CDAM_JD_2)_12845
   + TT(TD_m_s5_11h,TD_CDAM_JD_2)_13225
   + TT(TD_w_s5_14h15,TD_CDAM_JD_2)_13605
   + TT(TD_m_s5_14h15,TD_CDAM_JD_2)_13985
   + TT(TD_tu_s5_14h15,TD_CDAM_JD_2)_14365
   + TT(TD_tu_s5_15h45,TD_CDAM_JD_2)_15505
   + TT(TD_m_s5_15h45,TD_CDAM_JD_2)_15885
   + TT(TD_w_s5_15h45,TD_CDAM_JD_2)_16645
   + TT(TD_w_s5_9h30,TD_CDAM_JD_2)_17025
   + TT(TD_tu_s5_11h,TD_CDAM_JD_2)_17405
   + TT(TD_tu_s5_9h30,TD_CDAM_JD_2)_17785
   + TT(TD_w_s5_11h,TD_CDAM_JD_2)_18570
   + TT(TD_th_s5_9h30,TD_CDAM_JD_2)_19355
   + TT(TD_th_s5_11h,TD_CDAM_JD_2)_19735
   + TT(TD_th_s5_14h15,TD_CDAM_JD_2)_20115
   + TT(TD_th_s5_15h45,TD_CDAM_JD_2)_20495 = 1
 7614: TT(CM_f_s5_14h15,CM_CDAM_AP_CE)_10909
   + TT(CM_f_s5_15h45,CM_CDAM_AP_CE)_11216
   + TT(CM_f_s5_17h15,CM_CDAM_AP_CE)_11523
   + TT(CM_f_s5_8h,CM_CDAM_AP_CE)_9988
   + TT(CM_m_s5_14h15,CM_CDAM_AP_CE)_9656
   + TT(CM_m_s5_15h45,CM_CDAM_AP_CE)_6561
   + TT(CM_m_s5_17h15,CM_CDAM_AP_CE)_19075
   + TT(CM_m_s5_8h,CM_CDAM_AP_CE)_18290
   + TT(CM_th_s5_14h15,CM_CDAM_AP_CE)_9042
   + TT(CM_th_s5_15h45,CM_CDAM_AP_CE)_9349
   + TT(CM_th_s5_17h15,CM_CDAM_AP_CE)_9681
   + TT(CM_th_s5_8h,CM_CDAM_AP_CE)_8121
   + TT(CM_tu_s5_14h15,CM_CDAM_AP_CE)_3873
   + TT(CM_tu_s5_15h45,CM_CDAM_AP_CE)_6586
   + TT(CM_tu_s5_17h15,CM_CDAM_AP_CE)_4180
   + TT(CM_tu_s5_8h,CM_CDAM_AP_CE)_6229
   + TT(CM_w_s5_14h15,CM_CDAM_AP_CE)_7814
   + TT(CM_w_s5_15h45,CM_CDAM_AP_CE)_7200
   + TT(CM_w_s5_17h15,CM_CDAM_AP_CE)_7507
   + TT(CM_w_s5_8h,CM_CDAM_AP_CE)_6254 + TT(CM_m_s5_9h30,CM_CDAM_AP_CE)_390
   + TT(CM_m_s5_11h,CM_CDAM_AP_CE)_1555
   + TT(CM_tu_s5_11h,CM_CDAM_AP_CE)_3284
   + TT(CM_tu_s5_9h30,CM_CDAM_AP_CE)_5615
   + TT(CM_w_s5_11h,CM_CDAM_AP_CE)_5922
   + TT(CM_w_s5_9h30,CM_CDAM_AP_CE)_6893
   + TT(CM_th_s5_9h30,CM_CDAM_AP_CE)_8428
   + TT(CM_th_s5_11h,CM_CDAM_AP_CE)_8735
   + TT(CM_f_s5_9h30,CM_CDAM_AP_CE)_10295
   + TT(CM_f_s5_11h,CM_CDAM_AP_CE)_10602 = 1
Bounds
Binaries
 TT(CM_f_s5_14h15,CM_CDAM_AP_CE)_10909
 TT(CM_f_s5_15h45,CM_CDAM_AP_CE)_11216
 TT(CM_f_s5_17h15,CM_CDAM_AP_CE)_11523 TT(CM_f_s5_8h,CM_CDAM_AP_CE)_9988
 TT(CM_m_s5_14h15,CM_CDAM_AP_CE)_9656 TT(CM_m_s5_15h45,CM_CDAM_AP_CE)_6561
 TT(CM_m_s5_17h15,CM_CDAM_AP_CE)_19075 TT(CM_m_s5_8h,CM_CDAM_AP_CE)_18290
 TT(CM_m_s5_8h,CM_IA_MFC_234)_18285 TT(CM_m_s5_8h,CM_IE_RB_234)_18295
 TT(CM_th_s5_14h15,CM_CDAM_AP_CE)_9042
 TT(CM_th_s5_15h45,CM_CDAM_AP_CE)_9349
 TT(CM_th_s5_15h45,CM_IA_MFC_234)_9344 TT(CM_th_s5_15h45,CM_IE_RB_234)_9354
 TT(CM_th_s5_17h15,CM_CDAM_AP_CE)_9681 TT(CM_th_s5_8h,CM_CDAM_AP_CE)_8121
 TT(CM_tu_s5_14h15,CM_CDAM_AP_CE)_3873
 TT(CM_tu_s5_15h45,CM_CDAM_AP_CE)_6586
 TT(CM_tu_s5_17h15,CM_CDAM_AP_CE)_4180 TT(CM_tu_s5_8h,CM_CDAM_AP_CE)_6229
 TT(CM_w_s5_14h15,CM_CDAM_AP_CE)_7814 TT(CM_w_s5_14h15,CM_IA_MFC_234)_7809
 TT(CM_w_s5_14h15,CM_IE_RB_234)_7819 TT(CM_w_s5_15h45,CM_CDAM_AP_CE)_7200
 TT(CM_w_s5_17h15,CM_CDAM_AP_CE)_7507 TT(CM_w_s5_8h,CM_CDAM_AP_CE)_6254
 TT(TD_f_s5_17h15,TD_CDAM_JD_2)_2591 TT(TD_f_s5_17h15,TD_CDAM_JD_2)_2595
 TT(TD_f_s5_8h,TD_CDAM_JD_2)_666 TT(TD_f_s5_8h,TD_CDAM_JD_2)_670
 TT(TD_m_s5_17h15,TD_CDAM_JD_2)_14741 TT(TD_m_s5_17h15,TD_CDAM_JD_2)_14745
 TT(TD_m_s5_8h,TD_CDAM_JD_2)_12461 TT(TD_m_s5_8h,TD_CDAM_JD_2)_12465
 TT(TD_m_s5_8h,TD_CO_MN_2)_12548 TT(TD_m_s5_8h,TD_EC_HS_2)_12487
 TT(TD_m_s5_8h,TD_EC_HS_2)_12492 TT(TD_m_s5_8h,TD_FW_LN_2)_12433
 TT(TD_m_s5_8h,TD_FW_LN_2)_12443 TT(TD_m_s5_8h,TD_GA_RB_2)_12507
 TT(TD_m_s5_8h,TD_GA_RB_2)_12516 TT(TD_m_s5_8h,TD_PTUT_MFC_2)_12469
 TT(TD_m_s5_8h,TD_TA_VG_2)_12553 TT(TD_th_s5_17h15,TD_CDAM_JD_2)_261
 TT(TD_th_s5_17h15,TD_CDAM_JD_2)_265 TT(TD_th_s5_8h,TD_CDAM_JD_2)_18946
 TT(TD_th_s5_8h,TD_CDAM_JD_2)_18950 TT(TD_tu_s5_17h15,TD_CDAM_JD_2)_12081
 TT(TD_tu_s5_17h15,TD_CDAM_JD_2)_12085 TT(TD_tu_s5_8h,TD_CDAM_JD_2)_15121
 TT(TD_tu_s5_8h,TD_CDAM_JD_2)_15125 TT(TD_w_s5_17h15,TD_CDAM_JD_2)_18161
 TT(TD_w_s5_17h15,TD_CDAM_JD_2)_18165 TT(TD_w_s5_8h,TD_CDAM_JD_2)_16261
 TT(TD_w_s5_8h,TD_CDAM_JD_2)_16265 TT(TP_m_s5_8h,TP_CO_MN_2B)_3229
 TT(TP_m_s5_8h,TP_IA_PSO_2B)_3119 TT(TP_m_s5_8h,TP_IE_AV_2B)_3152
 TT(TP_m_s5_8h,TP_IE_AV_2B)_3163 TT(TP_m_s5_8h,TP_TA_IC_2B)_3243
 TT(TP_th_s5_15h45,TP_CO_MN_2A)_9590 TT(TP_th_s5_15h45,TP_IA_PSO_2A)_9480
 TT(TP_th_s5_15h45,TP_IE_RB_2A)_9502 TT(TP_th_s5_15h45,TP_IE_RB_2A)_9513
 TT(TP_th_s5_15h45,TP_TA_IC_2A)_9612 TT(CM_m_s5_9h30,CM_CDAM_AP_CE)_390
 TT(TD_f_s5_9h30,TD_CDAM_JD_2)_1046 TT(TD_f_s5_9h30,TD_CDAM_JD_2)_1050
 TT(TD_f_s5_11h,TD_CDAM_JD_2)_1426 TT(TD_f_s5_11h,TD_CDAM_JD_2)_1430
 TT(CM_m_s5_11h,CM_CDAM_AP_CE)_1555 TT(TD_f_s5_14h15,TD_CDAM_JD_2)_1831
 TT(TD_f_s5_14h15,TD_CDAM_JD_2)_1835 TT(TD_f_s5_15h45,TD_CDAM_JD_2)_2211
 TT(TD_f_s5_15h45,TD_CDAM_JD_2)_2215 TT(CM_tu_s5_11h,CM_CDAM_AP_CE)_3284
 TT(TP_w_s5_14h15,TP_IA_PSO_2B)_4015 TT(TP_w_s5_14h15,TP_IE_AV_2B)_4048
 TT(TP_w_s5_14h15,TP_IE_AV_2B)_4059 TT(TP_w_s5_14h15,TP_CO_MN_2B)_4125
 TT(TP_w_s5_14h15,TP_TA_IC_2B)_4139 TT(CM_tu_s5_9h30,CM_CDAM_AP_CE)_5615
 TT(CM_w_s5_11h,CM_CDAM_AP_CE)_5922 TT(CM_w_s5_9h30,CM_CDAM_AP_CE)_6893
 TT(CM_th_s5_9h30,CM_CDAM_AP_CE)_8428 TT(CM_th_s5_11h,CM_CDAM_AP_CE)_8735
 TT(CM_f_s5_9h30,CM_CDAM_AP_CE)_10295 TT(CM_f_s5_11h,CM_CDAM_AP_CE)_10602
 TT(TD_m_s5_9h30,TD_CDAM_JD_2)_12841 TT(TD_m_s5_9h30,TD_CDAM_JD_2)_12845
 TT(TD_m_s5_11h,TD_CDAM_JD_2)_13221 TT(TD_m_s5_11h,TD_CDAM_JD_2)_13225
 TT(TD_w_s5_14h15,TD_FW_LN_2)_13573 TT(TD_w_s5_14h15,TD_FW_LN_2)_13583
 TT(TD_w_s5_14h15,TD_CDAM_JD_2)_13601 TT(TD_w_s5_14h15,TD_CDAM_JD_2)_13605
 TT(TD_w_s5_14h15,TD_PTUT_MFC_2)_13609 TT(TD_w_s5_14h15,TD_EC_HS_2)_13627
 TT(TD_w_s5_14h15,TD_EC_HS_2)_13632 TT(TD_w_s5_14h15,TD_GA_RB_2)_13647
 TT(TD_w_s5_14h15,TD_GA_RB_2)_13656 TT(TD_w_s5_14h15,TD_CO_MN_2)_13688
 TT(TD_w_s5_14h15,TD_TA_VG_2)_13693 TT(TD_m_s5_14h15,TD_CDAM_JD_2)_13981
 TT(TD_m_s5_14h15,TD_CDAM_JD_2)_13985 TT(TD_tu_s5_14h15,TD_CDAM_JD_2)_14361
 TT(TD_tu_s5_14h15,TD_CDAM_JD_2)_14365
 TT(TD_tu_s5_15h45,TD_CDAM_JD_2)_15501
 TT(TD_tu_s5_15h45,TD_CDAM_JD_2)_15505 TT(TD_m_s5_15h45,TD_CDAM_JD_2)_15881
 TT(TD_m_s5_15h45,TD_CDAM_JD_2)_15885 TT(TD_w_s5_15h45,TD_CDAM_JD_2)_16641
 TT(TD_w_s5_15h45,TD_CDAM_JD_2)_16645 TT(TD_w_s5_9h30,TD_CDAM_JD_2)_17021
 TT(TD_w_s5_9h30,TD_CDAM_JD_2)_17025 TT(TD_tu_s5_11h,TD_CDAM_JD_2)_17401
 TT(TD_tu_s5_11h,TD_CDAM_JD_2)_17405 TT(TD_tu_s5_9h30,TD_CDAM_JD_2)_17781
 TT(TD_tu_s5_9h30,TD_CDAM_JD_2)_17785 TT(TD_w_s5_11h,TD_CDAM_JD_2)_18566
 TT(TD_w_s5_11h,TD_CDAM_JD_2)_18570 TT(TD_th_s5_9h30,TD_CDAM_JD_2)_19351
 TT(TD_th_s5_9h30,TD_CDAM_JD_2)_19355 TT(TD_th_s5_11h,TD_CDAM_JD_2)_19731
 TT(TD_th_s5_11h,TD_CDAM_JD_2)_19735 TT(TD_th_s5_14h15,TD_CDAM_JD_2)_20111
 TT(TD_th_s5_14h15,TD_CDAM_JD_2)_20115 TT(TD_th_s5_15h45,TD_FW_LN_2)_20463
 TT(TD_th_s5_15h45,TD_FW_LN_2)_20473 TT(TD_th_s5_15h45,TD_CDAM_JD_2)_20491
 TT(TD_th_s5_15h45,TD_CDAM_JD_2)_20495
 TT(TD_th_s5_15h45,TD_PTUT_MFC_2)_20499 TT(TD_th_s5_15h45,TD_EC_HS_2)_20517
 TT(TD_th_s5_15h45,TD_EC_HS_2)_20522 TT(TD_th_s5_15h45,TD_GA_RB_2)_20537
 TT(TD_th_s5_15h45,TD_GA_RB_2)_20546 TT(TD_th_s5_15h45,TD_CO_MN_2)_20578
 TT(TD_th_s5_15h45,TD_TA_VG_2)_20583
 TTinstr(TD_th_s5_17h15,TD_CDAM_JD_2,JD)_264
 TTinstr(TD_f_s5_8h,TD_CDAM_JD_2,JD)_669
 TTinstr(TD_f_s5_9h30,TD_CDAM_JD_2,JD)_1049
 TTinstr(TD_f_s5_11h,TD_CDAM_JD_2,JD)_1429
 TTinstr(TD_f_s5_14h15,TD_CDAM_JD_2,JD)_1834
 TTinstr(TD_f_s5_15h45,TD_CDAM_JD_2,JD)_2214
 TTinstr(TD_f_s5_17h15,TD_CDAM_JD_2,JD)_2594
 TTinstr(TD_tu_s5_17h15,TD_CDAM_JD_2,JD)_12084
 TTinstr(TD_m_s5_9h30,TD_CDAM_JD_2,JD)_12844
 TTinstr(TD_m_s5_11h,TD_CDAM_JD_2,JD)_13224
 TTinstr(TD_m_s5_14h15,TD_CDAM_JD_2,JD)_13984
 TTinstr(TD_tu_s5_14h15,TD_CDAM_JD_2,JD)_14364
 TTinstr(TD_tu_s5_8h,TD_CDAM_JD_2,JD)_15124
 TTinstr(TD_tu_s5_15h45,TD_CDAM_JD_2,JD)_15504
 TTinstr(TD_m_s5_15h45,TD_CDAM_JD_2,JD)_15884
 TTinstr(TD_w_s5_8h,TD_CDAM_JD_2,JD)_16264
 TTinstr(TD_w_s5_15h45,TD_CDAM_JD_2,JD)_16644
 TTinstr(TD_w_s5_9h30,TD_CDAM_JD_2,JD)_17024
 TTinstr(TD_tu_s5_11h,TD_CDAM_JD_2,JD)_17404
 TTinstr(TD_tu_s5_9h30,TD_CDAM_JD_2,JD)_17784
 TTinstr(TD_w_s5_17h15,TD_CDAM_JD_2,JD)_18164
 TTinstr(TD_w_s5_11h,TD_CDAM_JD_2,JD)_18569
 TTinstr(TD_th_s5_9h30,TD_CDAM_JD_2,JD)_19354
 TTinstr(TD_th_s5_11h,TD_CDAM_JD_2,JD)_19734
 TTinstr(TD_th_s5_14h15,TD_CDAM_JD_2,JD)_20114
 TTinstr(TD_th_s5_17h15,TD_CDAM_JD_2,JD)_268
 TTinstr(TD_f_s5_8h,TD_CDAM_JD_2,JD)_673
 TTinstr(TD_f_s5_9h30,TD_CDAM_JD_2,JD)_1053
 TTinstr(TD_f_s5_11h,TD_CDAM_JD_2,JD)_1433
 TTinstr(TD_f_s5_14h15,TD_CDAM_JD_2,JD)_1838
 TTinstr(TD_f_s5_15h45,TD_CDAM_JD_2,JD)_2218
 TTinstr(TD_f_s5_17h15,TD_CDAM_JD_2,JD)_2598
 TTinstr(TD_tu_s5_17h15,TD_CDAM_JD_2,JD)_12088
 TTinstr(TD_m_s5_9h30,TD_CDAM_JD_2,JD)_12848
 TTinstr(TD_m_s5_11h,TD_CDAM_JD_2,JD)_13228
 TTinstr(TD_m_s5_14h15,TD_CDAM_JD_2,JD)_13988
 TTinstr(TD_tu_s5_14h15,TD_CDAM_JD_2,JD)_14368
 TTinstr(TD_tu_s5_8h,TD_CDAM_JD_2,JD)_15128
 TTinstr(TD_tu_s5_15h45,TD_CDAM_JD_2,JD)_15508
 TTinstr(TD_m_s5_15h45,TD_CDAM_JD_2,JD)_15888
 TTinstr(TD_w_s5_8h,TD_CDAM_JD_2,JD)_16268
 TTinstr(TD_w_s5_15h45,TD_CDAM_JD_2,JD)_16648
 TTinstr(TD_w_s5_9h30,TD_CDAM_JD_2,JD)_17028
 TTinstr(TD_tu_s5_11h,TD_CDAM_JD_2,JD)_17408
 TTinstr(TD_tu_s5_9h30,TD_CDAM_JD_2,JD)_17788
 TTinstr(TD_w_s5_17h15,TD_CDAM_JD_2,JD)_18168
 TTinstr(TD_w_s5_11h,TD_CDAM_JD_2,JD)_18573
 TTinstr(TD_th_s5_9h30,TD_CDAM_JD_2,JD)_19358
 TTinstr(TD_th_s5_11h,TD_CDAM_JD_2,JD)_19738
 TTinstr(TD_th_s5_14h15,TD_CDAM_JD_2,JD)_20118
 TTinstr(CM_m_s5_11h,CM_CDAM_AP_CE,AP)_1559
 TTinstr(CM_tu_s5_17h15,CM_CDAM_AP_CE,AP)_4184
 TTinstr(CM_tu_s5_14h15,CM_CDAM_AP_CE,AP)_3877
 TTinstr(CM_w_s5_14h15,CM_CDAM_AP_CE,AP)_7818
 TTinstr(CM_tu_s5_15h45,CM_CDAM_AP_CE,AP)_6590
End
